%%MatrixMarket matrix array real general
49 1
-0.03110294065826657
-0.02180481317430358
 1.053689687181192
 0.9938274802743424
 0.9798754367251405
 0.5249245453709305
 0.8472976658029321
 0.2061082395189324
 1.341014547229739
-0.3847613382236788
 0.928129428227771
-0.1853300423247261
 0.3214964501366177
 0.9354144079206363
 1.427264457032627
-0.5941711081034056
 1.509566605238678
 0.8435977365210502
 0.4376838277719424
 0.3955880189751868
 0.5480445050241167
 0.09000079793719226
 0.6771637292227792
 0.3800346704328912
 0.9040941221211708
 0.9075009011527636
 0.7691195563963018
 0.3377600408460329
 1.301024877451954
 0.6122076392355201
 0.1340389767548649
 1.283143733612699
 1.153790023946056
 0.3631589309131181
 0.9902653583145827
 0.8862235161054288
 0.01800473709710156
 0.2960607529013867
 0.4778804462789703
-0.1690656589913914
 1.246907696882637
-0.0870214090861937
 0.2695360090355658
 0.1808689291247289
 0.2346223157470269
 0.6357949824988441
 0.2309220457273015
 1.48976677767069
 0.5966636697037125
