%%MatrixMarket matrix array real general
30 1
-265.0677287014896
 173.541862116225
 137.7936405537285
 56.34726321319128
 265.471015024876
-148.440313353264
 28.54535595678385
-348.3231763009709
 43.73143477882824
-61.56371957263952
 195.9826129512833
 87.90673655344497
 197.2668105611734
-185.1364076794586
-246.9328268465066
 63.90541637383803
-145.9574458668743
 125.1463373433127
-36.49783458691913
-232.9986256698367
-82.71563831676815
 34.17547347237515
 129.9253996446909
 6.601407680891701
 13.95549499471494
 61.38528128264852
-77.40963938685658
-188.4097460732114
 21.72723108530281
 13.52743310578315
