%%MatrixMarket matrix array real general
1000 1
 1014000599
 1028657477
 991898986
 1024997036
 1020790205
 959810027
 952353781
 962329484
 965435572
 1018896780
 970707284
 970982134
 967228515
 956250804
 980692092
 987618598
 979776814
 992593410
 963065885
 969814996
 963739692
 983374556
 944595724
 941058785
 960455098
 959209940
 950233861
 953941175
 967315543
 926064109
 905375275
 937885517
 959771266
 926518820
 917107822
 883626726
 952039183
 903518240
 920102874
 936826911
 899961804
 923382632
 882011150
 927193146
 943783509
 928683028
 930718522
 902690804
 890561612
 907665050
 931637039
 929592321
 882497343
 883230991
 889276069
 869717727
 891850714
 866135355
 890513231
 852594005
 908024973
 867407679
 913093378
 864923530
 851936870
 857645780
 868606944
 853801421
 853552497
 839574161
 834527911
 854773406
 815596125
 845649102
 855865117
 874279972
 848178769
 838707552
 835609456
 857421725
 831157241
 849294138
 858379307
 844821142
 830400009
 814648211
 820716006
 815200227
 872561727
 818146169
 812195735
 806684446
 807865951
 835536176
 800490827
 808871303
 803500238
 823375937
 792237155
 814470518
 806032254
 823353973
 776343300
 806813707
 781519467
 788013249
 806520483
 760283868
 783069289
 798380041
 761315242
 772594623
 782381015
 782846504
 760753451
 753752254
 777490906
 761979294
 769248328
 758767414
 783789232
 755863330
 786899405
 750903769
 736814590
 738165798
 732827413
 746126046
 731606189
 731285801
 741984455
 738550046
 736933010
 740602633
 729320184
 731631675
 732865343
 740517909
 722037241
 673131163
 720495836
 686261088
 725336316
 723043802
 700532642
 700421468
 671267039
 724140676
 736040738
 708043536
 676883678
 712927686
 684376024
 717267287
 655915844
 687391942
 670007262
 697037764
 677229820
 683849389
 661872816
 648808005
 675992596
 667813774
 691205941
 654493315
 651824287
 659739464
 679780569
 651093199
 639633160
 661624107
 678698130
 645113021
 637432356
 645757482
 632301914
 678844073
 646121485
 643598115
 603431185
 655145433
 630884351
 650323746
 626448842
 622685718
 603068718
 628627110
 611069237
 612092243
 624383226
 618195797
 594999121
 640256774
 617116570
 597512646
 616182590
 592922134
 614111189
 608645387
 593717484
 566272641
 583158420
 564827783
 592055689
 589217806
 617425457
 586231820
 568662714
 593644651
 563312425
 551880337
 571532364
 574665697
 564398307
 561419801
 575815256
 577903028
 565744442
 562301696
 529469972
 561927751
 566253036
 535996414
 552147882
 540079914
 521745411
 533531337
 555625564
 535733901
 516915086
 520293331
 527499319
 547364465
 520216422
 508244723
 507402578
 524564450
 539809182
 531773710
 533856231
 547085154
 515435641
 492439351
 508722930
 509671355
 511589072
 510268858
 526913799
 491821339
 491310886
 529405412
 470128327
 504006225
 456322754
 492159859
 503160902
 491150384
 482820437
 471327627
 478764340
 487421753
 469893627
 468564659
 466021430
 503228807
 460360103
 464399869
 468598167
 466007740
 451614667
 462311694
 462331605
 467359823
 439753399
 457054118
 439233330
 430710997
 432783833
 443537418
 427716524
 432996051
 433956107
 437304039
 430452519
 421150523
 455277569
 406148467
 441322887
 420607787
 433451734
 415305804
 437307449
 444583748
 406686992
 415223700
 409399413
 421073585
 418773047
 395640997
 405105249
 380131502
 417263931
 395824141
 387247705
 359137747
 400879052
 386374234
 375749300
 376041643
 367623207
 360049207
 351714098
 386945522
 371248115
 358624005
 363346228
 359052650
 386433682
 383321895
 365127920
 378179510
 352678604
 347534903
 362075642
 334847388
 339006821
 341522715
 362679435
 341175404
 334400558
 349253768
 333427573
 321194542
 357863726
 356125781
 310414392
 310726593
 330899841
 343505853
 320876254
 320627400
 321387312
 314974553
 313298749
 310328098
 323122331
 309665044
 323858151
 298730205
 284437794
 297758829
 302605921
 272603057
 284199708
 296390278
 281378683
 285211464
 289325428
 284702646
 278048544
 276140783
 272408350
 282307893
 277937420
 289454128
 240991221
 256065818
 253355100
 257094345
 271149648
 235841564
 231033193
 259080668
 242049078
 243838106
 234519000
 268057552
 238803074
 220306133
 243577640
 218909609
 233743063
 242130312
 233323637
 233470071
 253248663
 215769211
 235905722
 204761077
 213654837
 233840800
 222682401
 222094012
 208777984
 207036572
 195456315
 215058096
 192383681
 218602776
 187525781
 189527583
 188097792
 178780686
 180193145
 180542832
 185647398
 206396569
 183812234
 186505153
 174002968
 185489550
 184741246
 185524237
 156550459
 166965154
 183742943
 165379459
 155521889
 163885915
 179115423
 152778039
 166660442
 149235378
 165166756
 142964201
 165432050
 127937049
 146614795
 123671573
 138586980
 135525300
 123793322
 150829983
 145473986
 119358826
 128385049
 120332707
 97299320
 115545711
 107862564
 144547430
 107887072
 112150839
 104525890
 125595023
 110440043
 99846442
 98965048
 91236316
 116450310
 115108380
 100472366
 92222712
 107032267
 81883478
 89123001
 83031763
 80471839
 70005238
 85034007
 62334519
 70347265
 80150926
 57753170
 65906726
 60124593
 68923368
 71296317
 58576320
 51646437
 62618110
 48339035
 57091740
 46046237
 41397802
 56200310
 37712463
 42769125
 28695741
 22404345
 41244016
 29719542
 25476113
 30662365
 25538393
 40315485
 18062102
 32003520
 31686910
 33956676
 2534770
 19034145
 30072417
 5244487
 3154348
-2300696
 3876451
 10280343
-10680337
-18751717
-8051783
 5806277
-3968955
-15105251
-2750495
-17648299
-12658560
-31087875
-35514440
-33407585
-28251054
-26313686
-42091382
-11748787
-25283794
-25918116
-36494857
-25444511
-39066673
-43106593
-30133569
-53457556
-25477707
-45414847
-42714397
-51349833
-45439445
-54771887
-61744995
-73214647
-62552960
-44374295
-71685045
-65547534
-59344950
-56007729
-90644743
-86655306
-87942406
-77985015
-90823000
-82191008
-103640001
-83383795
-90885771
-87281704
-99494421
-97704103
-88612141
-100357138
-101597139
-106758747
-106184837
-108217804
-103270072
-112249958
-99877475
-116388955
-116078496
-116571105
-103902613
-110980274
-110309378
-129632545
-118671172
-125936959
-143777319
-138429607
-158612053
-124268729
-145615291
-142746883
-153758099
-141907656
-148987505
-151465436
-143430205
-149915802
-148968217
-166338661
-147211581
-183008414
-164425300
-171442976
-189392082
-173331698
-192684185
-159341426
-175929852
-193007065
-172712185
-190743883
-186626463
-186878060
-193444845
-202859605
-194921968
-192175686
-205543033
-204857029
-193632505
-215301650
-210004016
-212147168
-214781891
-183314248
-221414106
-190690180
-201068890
-224542727
-234208384
-228829867
-230207145
-224183773
-215327368
-227703370
-241710315
-240752023
-224578003
-240670846
-253333770
-250859942
-231608511
-242194224
-263023015
-268255261
-242211710
-261917930
-265656754
-263903106
-264182838
-277507006
-256991625
-263232940
-282737928
-276313873
-290718796
-286343591
-277901058
-287946846
-291679705
-298665840
-267435899
-274915323
-304707673
-293692501
-275027509
-294779768
-290804973
-276040910
-287819930
-314406253
-295268096
-300285917
-312055977
-304854201
-312217678
-318673325
-312534915
-323782914
-313485674
-320793396
-315438155
-321865883
-312850484
-341345900
-337686170
-330050025
-357647042
-339284900
-333815000
-334093725
-366683031
-342614305
-331463879
-355513418
-361865033
-376876118
-336505635
-378510326
-345525149
-331411970
-379115751
-366155925
-377967168
-365102235
-373958012
-370789325
-405634447
-379378698
-378600625
-378926480
-380552811
-412648207
-395954557
-383507172
-385259334
-387795865
-382398589
-401143132
-416763845
-407029713
-413935303
-410393769
-431835201
-429176692
-426087446
-417979206
-416061158
-432219464
-439685784
-417815525
-430378522
-416771425
-442311889
-425293573
-425630442
-440858221
-439482148
-460808990
-414839910
-438918594
-440876881
-461780329
-447939838
-483489243
-453056319
-461259073
-457464476
-441361965
-478401653
-460224424
-451612600
-473448402
-465362667
-469862377
-493687424
-485242583
-487874187
-483381122
-483695670
-475613858
-511735696
-470178745
-510394177
-493222681
-494207596
-497971162
-508949678
-514111424
-507463925
-506575253
-512899126
-516839315
-515012556
-503851641
-500785386
-534538945
-524703691
-529645259
-560068906
-527652817
-493017317
-544140134
-535310069
-555831522
-512334906
-513655536
-524306281
-532340472
-535922287
-528252556
-536066779
-562792576
-554644242
-561704051
-567430071
-560219130
-553496126
-560483204
-578521008
-559567813
-569281130
-569656071
-562659495
-602993854
-565779257
-601971762
-582515539
-582123043
-551768212
-582570742
-605991478
-601170017
-590350137
-593899660
-584244478
-615854258
-612372922
-582933897
-598242755
-601501326
-593296437
-582921539
-620951609
-633936757
-607697310
-604620843
-612344184
-618985365
-608601663
-648038762
-637357632
-629786470
-626084172
-637655562
-633707032
-625410259
-623316176
-660046025
-623055931
-643243166
-654858693
-672609344
-642716639
-665497132
-661218066
-646664121
-640030117
-662089376
-690374665
-658467181
-692449517
-652740529
-678532109
-663873003
-673877488
-699633463
-681853119
-688914494
-682521589
-693949463
-685261551
-671600644
-686544421
-701249938
-706975190
-701282342
-700867686
-689436579
-702034887
-731386405
-691394926
-718010896
-727056447
-691646729
-692123522
-698336360
-730618070
-733460713
-714540168
-724032103
-704585520
-743951770
-730105698
-713786674
-747708625
-744900141
-760750628
-743724895
-714541808
-730491409
-739101301
-765203873
-776997948
-757894186
-746741172
-746606940
-736406612
-803533790
-738575833
-790521559
-786549171
-772421838
-758213969
-790271260
-791323559
-788127110
-795006632
-759100913
-775843322
-790427112
-801314255
-754158953
-781471829
-778312892
-792481376
-802226274
-787114454
-821481257
-771632804
-798980044
-842978056
-824095588
-816311007
-820860098
-808788270
-764514490
-842835377
-823249587
-813812118
-781937088
-833958476
-828032341
-799938642
-828414104
-843098286
-847673961
-853542059
-869554332
-828688449
-827631271
-854777003
-837112478
-835707918
-858398818
-857301451
-873321876
-859262444
-834744553
-899145949
-849008866
-872446811
-834282084
-865456268
-873545372
-872095037
-869828297
-862154867
-924206267
-900542447
-887929801
-896880013
-875222752
-870124592
-897599241
-877164622
-905182620
-944912618
-859674578
-890695788
-876641562
-875467427
-911131436
-902111111
-916816373
-898087634
-921522658
-897125283
-901763256
-930846851
-942951178
-926982701
-930615671
-921493149
-942134563
-927752720
-929402538
-911695594
-949435860
-926110280
-935764131
-944885385
-925563526
-927444129
-968621513
-952089484
-961210369
-946957532
-944511031
-964243144
-957593396
-960515797
-939662095
-946432455
-965322784
-937681864
-1023062375
-979342888
-967342567
-983841081
-969647834
-999839031
-980550549
-963956806
-1018240086
-978679974
-1017144129
-990015280
