%%MatrixMarket matrix array real general
500 1
 125188394
 119487951
 120189735
 123721613
 120952100
 128386498
 126499692
 122838604
 117728843
 121099531
 117388237
 123307544
 119117553
 120815612
 114948633
 117154112
 123331566
 111130679
 123920361
 117486806
 116704302
 112322144
 112031538
 111901180
 108907802
 117362631
 111311917
 113964249
 107917438
 105645218
 110582314
 108756295
 108826494
 114228418
 109390103
 105985073
 106870937
 108367795
 106023497
 105655761
 107747676
 106260828
 106793162
 101894282
 107098550
 102969340
 99502377
 102475354
 99051515
 104083962
 102012278
 92516590
 95420556
 93625607
 106854018
 102324935
 96517230
 93794622
 97326781
 92565326
 97076587
 100918792
 92546073
 91055931
 89626808
 87663866
 97036253
 91635221
 92083569
 88947605
 92507128
 86181254
 87532078
 88446122
 93385650
 85123457
 84400751
 91118913
 87050177
 90677326
 76741184
 84096701
 79277224
 81209708
 81340801
 82857143
 82116545
 80612311
 79389437
 72425395
 79588318
 79561655
 73037456
 76690045
 76881949
 76722617
 79337273
 76216522
 74370362
 77046307
 73760621
 73979346
 72426460
 74158162
 75832946
 69423550
 68728136
 76257500
 71884571
 71824757
 70435932
 72961453
 69304229
 71440536
 68248943
 64668983
 65005415
 64684632
 65638893
 71593688
 67004552
 61888099
 60994579
 62893564
 61520134
 62583872
 64362133
 58583635
 58800360
 60273167
 60354162
 63406735
 60083583
 62019502
 57963602
 54680768
 61908804
 57414570
 52986284
 56586888
 49810214
 51859091
 55545821
 52145077
 53202149
 53698075
 52151887
 49934554
 55038633
 46411859
 45482720
 53296850
 44653170
 52599977
 46536029
 48941214
 43464524
 46186919
 45483245
 48377260
 46083455
 42829996
 42529924
 41156546
 45935677
 42544194
 43193073
 38989632
 34788298
 39518569
 39646119
 37451348
 38180940
 40315978
 38810017
 36622672
 37375044
 36540110
 39236039
 30444266
 33988163
 34569720
 33895293
 34086025
 30849669
 29015754
 28530977
 30389133
 31489755
 28246859
 27132474
 30367978
 29005654
 29379392
 26432435
 29881870
 29396958
 23727834
 23822650
 25626125
 23954929
 23968440
 22966614
 22264146
 23145070
 23597763
 21452922
 24842916
 20663151
 18616334
 18864843
 22741913
 20106759
 20077479
 15661401
 16164692
 16414833
 16286110
 16134008
 14865303
 15235394
 16582697
 14515437
 13606760
 13296235
 11654302
 14952148
 13788625
 12735715
 7988881
 9016068
 7410794
 6789179
 7823059
 7181440
 8762974
 5276985
 4499634
 6074618
 3062694
 5179850
 4896704
 2989598
 1362151
 4404398
 159717
 4419832
-121937
-418710
 2577596
 1772836
-2386014
-2062786
-4921874
-1783085
-4402005
-4139047
-3209658
-3554474
-6696404
-4797731
-5223850
-6347900
-7859168
-5870040
-8524443
-8742140
-7633034
-6884200
-10458977
-11689127
-10446297
-10581835
-10947917
-11577045
-19771520
-10997157
-11168105
-12745373
-13404344
-14908856
-17053922
-17528359
-19695095
-16793643
-14516935
-20910104
-17434078
-17971886
-18291859
-21008126
-21471001
-22105484
-22338179
-22868083
-23750903
-21157501
-20900052
-24688738
-25174019
-27350096
-26588977
-26485053
-25277673
-28601790
-25255790
-26447631
-26139127
-31336239
-29029454
-30878020
-30292012
-30815419
-31509270
-33084772
-33217830
-34715617
-32793299
-37285346
-34060957
-35455946
-32293786
-37324200
-34104588
-36214513
-34373387
-35265443
-38048104
-40003149
-40695655
-37953964
-40093432
-38815581
-40552251
-44394684
-43106053
-42633780
-45489765
-45260243
-43523811
-43672262
-46384775
-45908616
-46166952
-50087415
-47951066
-48670946
-50334153
-47577263
-53153310
-49260735
-53925123
-49000127
-56059446
-53716069
-52781165
-52366240
-53074039
-55566929
-59899258
-60048561
-56979987
-56374649
-61179056
-53591623
-60718246
-61493835
-58309825
-58356070
-61241093
-58230237
-63020459
-64148218
-57747796
-61652628
-58186734
-67104573
-67169700
-62949397
-70217299
-65969185
-69911864
-64805456
-70291960
-66877125
-69515555
-69803796
-65907159
-71634622
-62931217
-67925889
-75716620
-71634835
-69970964
-72136848
-68977797
-75145723
-73860922
-72414501
-74341953
-74966620
-71640859
-68746408
-77411044
-78187276
-82976654
-75194500
-80143587
-75765580
-79630414
-76750780
-83420098
-82453596
-80774103
-76556003
-85612688
-81736265
-83094081
-81600562
-85816279
-87972458
-85206989
-87951567
-83175426
-89124898
-91473891
-88042728
-89134326
-93794569
-90300422
-90258366
-87292300
-91250158
-90391235
-96418213
-89924587
-92590852
-95189622
-91814043
-91181436
-92752331
-97372048
-98459824
-98046303
-96751406
-97891828
-93787406
-101259833
-100637158
-101047747
-105673867
-99480688
-99158043
-103961361
-98377995
-98754482
-106410222
-101332507
-108848992
-101392160
-110937753
-106691770
-108227892
-109129651
-103673732
-105559033
-101944652
-107554451
-111356344
-104078408
-103523617
-117074335
-114164591
-114835195
-109160450
-109927538
-112297500
-109759825
-112392146
-113228850
-116876802
-117001107
-118285363
-112856008
-119981972
-120089227
-117878536
-119660319
-115242321
-118745440
-120512386
-121590473
-122819888
-124003874
-124371923
-122320108
-118552163
-125383118
-125525219
-132716112
