%%MatrixMarket matrix array real general
200 1
 265
 278
 297
 320
 358
 392
 444
 488
 555
 650
 713
 828
 929
 1010
 1125
 1280
 1448
 1556
 1744
 1904
 2030
 2248
 2432
 2672
 2974
 3188
 3356
 3584
 3762
 4004
 4564
 4832
 5175
 5394
 5897
 6132
 6519
 6918
 7251
 7672
 8105
 8382
 9007
 9300
 9687
 9990
 10767
 11568
 12001
 12342
 12789
 13348
 13707
 14502
 15097
 15704
 16323
 16722
 17361
 17892
 18309
 19226
 20415
 20992
 21448
 22040
 23310
 24064
 25106
 25608
 26256
 27056
 27813
 28638
 29475
 30172
 31031
 32058
 32785
 33840
 35073
 35670
 36935
 37548
 38505
 39302
 40281
 41448
 42275
 42930
 43771
 45356
 46593
 47470
 48735
 49632
 50731
 52430
 53163
 55500
 56661
 58242
 59431
 60632
 61425
 62646
 64307
 65556
 66817
 67650
 68931
 70224
 71303
 72162
 74175
 75980
 76869
 77998
 79373
 80760
 81675
 83814
 84993
 86428
 88125
 90090
 91821
 93824
 95590
 97112
 98646
 99928
 101750
 103320
 104632
 106496
 107627
 110346
 112537
 115028
 116133
 118378
 119499
 120912
 122043
 124346
 127257
 128716
 129885
 131358
 134349
 135848
 137049
 138562
 142563
 144108
 146289
 148802
 151017
 152608
 154529
 156462
 159711
 161348
 163323
 165310
 167643
 169656
 172494
 174196
 176248
 177624
 180388
 181780
 183876
 186688
 188104
 190948
 192380
 194536
 198876
 200704
 202174
 204016
 206035
 208266
 210883
 213140
 215409
 220730
 222275
 225360
 227878
 231000
 233362
 235736
 238315
 241902
 243720
 245945
