%%MatrixMarket matrix array real general
500 1
 522
 536
 556
 580
 619
 654
 707
 752
 820
 916
 980
 1096
 1198
 1280
 1396
 1552
 1721
 1830
 2019
 2180
 2307
 2526
 2711
 2952
 3255
 3470
 3639
 3868
 4047
 4290
 4851
 5120
 5464
 5684
 6188
 6424
 6812
 7212
 7546
 7968
 8402
 8680
 9306
 9600
 9988
 10292
 11070
 11872
 12306
 12648
 13096
 13656
 14016
 14812
 15408
 16016
 16636
 17036
 17676
 18208
 18626
 19544
 20734
 21312
 21769
 22362
 23633
 24388
 25431
 25934
 26583
 27384
 28343
 29170
 30009
 30708
 31569
 32598
 33327
 34384
 35619
 36218
 37485
 38100
 39059
 39858
 40839
 42008
 42837
 43494
 44337
 45924
 47163
 48042
 49309
 50208
 51309
 53010
 53745
 56084
 57247
 58830
 60021
 61224
 62019
 63242
 64905
 66156
 67419
 68254
 69537
 70832
 71913
 72774
 74789
 76596
 77487
 78618
 79995
 81384
 82301
 84442
 85623
 87060
 88759
 90726
 92459
 94464
 96232
 97756
 99292
 100576
 102400
 103972
 105286
 107152
 108486
 111208
 113402
 115896
 117004
 119252
 120376
 121792
 122926
 125232
 128146
 129608
 130780
 132256
 135250
 136752
 137956
 139472
 143476
 145024
 147208
 149724
 151942
 153536
 155460
 157396
 160648
 162288
 164266
 166256
 168592
 170608
 173650
 175356
 177412
 178792
 181560
 182956
 185056
 187872
 189292
 192140
 193576
 195736
 200080
 201912
 203386
 205232
 207456
 209692
 212314
 214576
 216850
 222176
 223726
 226816
 229540
 232668
 235036
 237416
 240202
 243796
 245822
 248256
 250702
 252352
 254818
 258520
 261836
 266820
 268528
 270656
 273210
 274936
 277510
 279672
 281416
 283592
 287496
 289264
 291904
 300660
 303352
 306056
 309214
 314608
 318254
 322816
 325156
 327052
 329406
 332224
 335512
 337896
 339826
 342688
 346960
 350788
 352756
 355200
 357178
 359636
 362580
 366976
 371396
 374872
 379336
 382360
 384405
 387450
 391001
 393576
 397155
 399750
 404863
 407484
 410619
 412750
 415395
 418560
 420710
 423896
 428130
 434984
 438224
 440952
 443162
 451184
 453954
 456200
 460586
 465528
 467804
 472244
 476162
 479552
 482954
 486368
 493094
 496544
 499452
 501812
 506966
 511584
 516784
 520880
 527256
 533096
 536684
 539712
 542174
 545216
 547688
 552484
 557882
 561552
 565234
 572456
 574994
 581680
 584240
 592764
 596548
 600944
 604754
 607972
 610592
 613824
 618284
 622148
 627252
 629912
 635048
 641444
 646624
 650576
 656418
 659144
 662504
 665240
 670516
 676448
 679214
 686464
 689252
 693332
 696778
 699584
 704994
 709772
 717836
 727904
 731440
 735644
 740522
 748072
 750992
 754584
 759524
 767168
 770126
 773764
 778766
 783104
 787454
 791132
 797562
 800576
 810494
 814920
 817970
 822416
 826176
 830644
 837932
 842432
 846238
 849344
 853874
 857704
 862256
 868968
 873550
 878144
 885638
 889540
 894176
 901008
 906404
 911084
 915042
 927104
 936266
 942504
 948020
 952064
 956361
 959674
 964491
 975336
 982455
 985818
 994491
 1000156
 1004313
 1011534
 1019545
 1026048
 1029491
 1033710
 1039485
 1044500
 1049527
 1053786
 1057271
 1061544
 1066611
 1072478
 1076781
 1080300
 1085411
 1092126
 1095669
 1102416
 1108381
 1112754
 1121165
 1127988
 1135641
 1139258
 1144507
 1148952
 1152587
 1161966
 1170555
 1175052
 1180383
 1186554
 1191911
 1196448
 1206831
 1213070
 1220163
 1225596
 1231041
 1237342
 1244505
 1252536
 1261441
 1266114
 1271649
 1277196
 1281039
 1296066
 1299943
 1307280
 1313771
 1318542
 1327671
 1332468
 1338520
 1346840
 1352550
 1360912
 1365770
 1371520
 1383484
 1391048
 1395072
 1405344
 1420118
 1425088
 1429168
 1437752
 1443654
 1448664
 1457306
 1463248
 1470112
 1475168
 1482060
 1495380
 1499564
 1504672
 1508866
 1517684
 1533934
 1538176
 1544282
 1550400
 1556530
 1561736
 1567387
 1571670
 1580667
 1585912
 1594949
 1599270
 1607395
 1611732
 1622751
 1627110
 1638179
 1644480
 1657527
 1668686
 1676013
 1681420
 1685364
 1690784
 1695238
 1709456
 1716872
 1726264
 1732734
 1741184
 1745209
 1750726
 1757241
 1761784
 1767818
 1776356
 1780421
 1789489
