%%MatrixMarket matrix array real general
2000 1
 2060
 2076
 2098
 2124
 2165
 2202
 2257
 2304
 2374
 2472
 2538
 2656
 2760
 2844
 2962
 3120
 3291
 3402
 3593
 3756
 3885
 4106
 4293
 4536
 4841
 5058
 5229
 5460
 5641
 5886
 6449
 6720
 7066
 7288
 7794
 8032
 8422
 8824
 9160
 9584
 10020
 10300
 10928
 11224
 11614
 11920
 12700
 13504
 13940
 14284
 14734
 15296
 15658
 16456
 17054
 17664
 18286
 18688
 19330
 19864
 20284
 21204
 22396
 22976
 23435
 24030
 25303
 26060
 27105
 27610
 28261
 29064
 30025
 30854
 31695
 32396
 33259
 34290
 35021
 36080
 37317
 37918
 39187
 39804
 40765
 41566
 42549
 43720
 44551
 45210
 46055
 47644
 48885
 49766
 51035
 51936
 53039
 54742
 55479
 57820
 58985
 60570
 61763
 62968
 63765
 64990
 66655
 67908
 69173
 70010
 71295
 72592
 73675
 74538
 76555
 78364
 79257
 80390
 81769
 83160
 84079
 86222
 87405
 88844
 90545
 92514
 94249
 96256
 98026
 99552
 101090
 102376
 104202
 105776
 107092
 108960
 110296
 113020
 115216
 117712
 118822
 121072
 122198
 123616
 124752
 127060
 129976
 131440
 132614
 134092
 137088
 138592
 139798
 141316
 145322
 146872
 149058
 151576
 153796
 155392
 157318
 159256
 162510
 164152
 166132
 168124
 170462
 172480
 175524
 177232
 179290
 180672
 183442
 184840
 186942
 189760
 191182
 194032
 195470
 197632
 201978
 203812
 205288
 207136
 209362
 211600
 214224
 216488
 218764
 224092
 225644
 228736
 231462
 234592
 236962
 239344
 242132
 245728
 247756
 250192
 252640
 254292
 256760
 260464
 263782
 268768
 270478
 272608
 275164
 276892
 279468
 281632
 283378
 285556
 289462
 291232
 293874
 302632
 305326
 308032
 311192
 316588
 320236
 324800
 327142
 329040
 331396
 334216
 337506
 339892
 341824
 344688
 348962
 352792
 354762
 357208
 359188
 361648
 364594
 368992
 373414
 376892
 381358
 384384
 386932
 389980
 393534
 396112
 399694
 402292
 407408
 410032
 413170
 415304
 417952
 421120
 423273
 426462
 430699
 437556
 440799
 443530
 445743
 453768
 456541
 458790
 463179
 468124
 470403
 474846
 478767
 482160
 485565
 488982
 495711
 499164
 502075
 504438
 509595
 514216
 519419
 523518
 529897
 535740
 539331
 542362
 544827
 547872
 550347
 555146
 560547
 564220
 567905
 575130
 577671
 584360
 586923
 595450
 599237
 603636
 607449
 610670
 613293
 616528
 620991
 624858
 629965
 632628
 637767
 644166
 649349
 653304
 659149
 661878
 665241
 667980
 673259
 679194
 681963
 689216
 692007
 696090
 699539
 702348
 707761
 712542
 720609
 730680
 734219
 738426
 743307
 750860
 753783
 757378
 762321
 769968
 772929
 776570
 781575
 785916
 790269
 793950
 800383
 803400
 813321
 817750
 820803
 825252
 829015
 833486
 840777
 845280
 849089
 852198
 856731
 860564
 865119
 871834
 876419
 881016
 888513
 892418
 897057
 903892
 909291
 913974
 917935
 930000
 939165
 945406
 950925
 954972
 959773
 963090
 967911
 978760
 985883
 989250
 997927
 1003596
 1007757
 1014982
 1022997
 1029504
 1032951
 1037174
 1042953
 1047972
 1053003
 1057266
 1060755
 1065032
 1070103
 1075974
 1080281
 1083804
 1088919
 1095638
 1099185
 1105936
 1111905
 1116282
 1124697
 1131524
 1139181
 1142802
 1148055
 1152504
 1156143
 1165526
 1174119
 1178620
 1183955
 1190130
 1195491
 1200032
 1210419
 1216662
 1223759
 1229196
 1234645
 1240950
 1248117
 1256152
 1265061
 1269738
 1275277
 1280828
 1284675
 1299706
 1303587
 1310928
 1317423
 1322198
 1331331
 1336132
 1342689
 1351014
 1356729
 1365096
 1369959
 1375714
 1387683
 1395252
 1399281
 1409558
 1424337
 1429312
 1433397
 1441986
 1447893
 1452908
 1461555
 1467502
 1474371
 1479432
 1486329
 1499654
 1503843
 1508956
 1513155
 1521978
 1538233
 1542480
 1548591
 1554714
 1560849
 1566060
 1572217
 1576506
 1585509
 1590760
 1599803
 1604130
 1612261
 1616604
 1627629
 1631994
 1643069
 1649376
 1662429
 1673594
 1680927
 1686340
 1690791
 1696218
 1700679
 1714904
 1722327
 1731726
 1738203
 1746660
 1751193
 1756718
 1763241
 1767792
 1774335
 1782882
 1787457
 1797036
 1805637
 1810242
 1818875
 1829544
 1836201
 1841858
 1848537
 1856244
 1862949
 1869666
 1881505
 1891328
 1896046
 1901796
 1912704
 1919512
 1925298
 1933164
 1942084
 1949984
 1956858
 1963744
 1979010
 1985936
 1990774
 1999824
 2011002
 2016928
 2023920
 2037284
 2042188
 2051352
 2062668
 2068672
 2073614
 2082848
 2094250
 2100300
 2108514
 2122144
 2128236
 2135420
 2140444
 2146560
 2153774
 2158816
 2169332
 2175488
 2190436
 2206524
 2217146
 2222272
 2228508
 2235860
 2243224
 2248376
 2255760
 2272084
 2277272
 2284704
 2297758
 2305224
 2316080
 2321320
 2328824
 2339736
 2352940
 2358224
 2364650
 2372224
 2384378
 2390840
 2396164
 2410676
 2428674
 2438656
 2446350
 2451744
 2461774
 2467184
 2477246
 2482672
 2492766
 2500544
 2505994
 2516136
 2521602
 2531776
 2539614
 2548644
 2570692
 2580960
 2586504
 2596804
 2605934
 2613888
 2624242
 2639400
 2647406
 2659024
 2670666
 2676312
 2691610
 2699696
 2706584
 2714692
 2722812
 2738240
 2743960
 2754564
 2767632
 2775832
 2782818
 2788584
 2795584
 2814912
 2820714
 2832700
 2840996
 2855504
 2865076
 2873420
 2881776
 2897632
 2912274
 2918184
 2925352
 2933784
 2939712
 2948164
 2956628
 2967632
 2976124
 2988432
 3000764
 3016936
 3022952
 3031524
 3038830
 3055104
 3065004
 3085192
 3092568
 3098664
 3106054
 3114744
 3120858
 3133456
 3140886
 3154824
 3179206
 3190608
 3199418
 3212164
 3226244
 3235104
 3246604
 3259440
 3265710
 3273304
 3282228
 3292488
 3301438
 3313056
 3319374
 3327028
 3341360
 3350376
 3359404
 3367104
 3376154
 3382528
 3394290
 3400680
 3416524
 3429696
 3440184
 3457468
 3465282
 3474464
 3487744
 3494228
 3503448
 3512680
 3521924
 3546272
 3555562
 3570368
 3578312
 3589024
 3601134
 3611880
 3625414
 3643136
 3651164
 3657808
 3665850
 3687860
 3701530
 3711024
 3717726
 3734260
 3743796
 3753344
 3768544
 3780948
 3796200
 3804400
 3831042
 3840704
 3850378
 3860064
 3871188
 3880900
 3889194
 3896064
 3910108
 3919868
 3928202
 3935104
 3944894
 3966248
 3976078
 3983024
 3991424
 4009996
 4016972
 4025408
 4039684
 4046684
 4056612
 4065088
 4089698
 4099680
 4109674
 4118208
 4129698
 4142680
 4171940
 4189424
 4196566
 4206680
 4215320
 4222480
 4231134
 4238304
 4251454
 4267616
 4277814
 4286524
 4298246
 4311488
 4321738
 4342556
 4351334
 4358608
 4368914
 4397424
 4406260
 4418144
 4431566
 4441960
 4452366
 4464312
 4474744
 4489784
 4498712
 4509184
 4516592
 4527084
 4536046
 4546560
 4553994
 4567624
 4575074
 4593392
 4603972
 4625456
 4634516
 4649824
 4666718
 4694588
 4705288
 4726976
 4736144
 4756324
 4768670
 4779456
 4788676
 4799484
 4816632
 4827472
 4838324
 4852364
 4860064
 4874136
 4889822
 4902340
 4916472
 4924224
 4938388
 4950968
 4966776
 4981000
 5006514
 5014344
 5023792
 5036480
 5047566
 5057044
 5069774
 5090640
 5105038
 5116200
 5127374
 5135296
 5146490
 5160968
 5177104
 5185064
 5199596
 5210860
 5222136
 5233424
 5246374
 5257688
 5272322
 5283664
 5291702
 5303064
 5314438
 5325824
 5340554
 5353636
 5380094
 5391552
 5416414
 5424560
 5446134
 5455984
 5469206
 5484128
 5515930
 5529224
 5550984
 5560936
 5569202
 5584256
 5595934
 5604224
 5615922
 5625928
 5647884
 5661336
 5678224
 5700272
 5720642
 5732464
 5740862
 5757864
 5769724
 5785044
 5793480
 5808832
 5817284
 5829204
 5844604
 5863496
 5873726
 5901364
 5909888
 5930624
 5939170
 5954712
 5963274
 5978848
 6003212
 6013568
 6022174
 6032544
 6046446
 6067420
 6079596
 6091784
 6100444
 6117968
 6139064
 6153088
 6163572
 6175844
 6209512
 6218264
 6234164
 6242932
 6255284
 6265856
 6278230
 6290616
 6304812
 6317224
 6327846
 6345692
 6358144
 6372416
 6390324
 6401008
 6420770
 6438744
 6454924
 6483864
 6496454
 6514528
 6527148
 6536124
 6563404
 6577904
 6601590
 6617968
 6630690
 6650784
 6661696
 6670772
 6683544
 6700024
 6714674
 6727488
 6738460
 6751296
 6786440
 6806764
 6823392
 6832584
 6851110
 6867792
 6877014
 6899344
 6908588
 6932844
 6962770
 6987104
 7000182
 7022692
 7047120
 7060256
 7069624
 7094132
 7105418
 7118608
 7128014
 7145024
 7160152
 7177200
 7190456
 7203724
 7218914
 7230296
 7243600
 7253084
 7270244
 7279744
 7298858
 7310300
 7323676
 7337064
 7346604
 7365808
 7377300
 7398480
 7423564
 7435104
 7448594
 7475704
 7487286
 7502772
 7516324
 7527936
 7541463
 7553094
 7574523
 7588140
 7599807
 7621302
 7640859
 7652568
 7662315
 7699674
 7711431
 7742956
 7756727
 7770510
 7790251
 7810016
 7831791
 7845642
 7857515
 7867404
 7879291
 7905158
 7919073
 7939000
 7954947
 7968906
 7980871
 8000876
 8010855
 8030898
 8069091
 8093232
 8103279
 8117370
 8147649
 8169876
 8184027
 8202246
 8222515
 8236712
 8246853
 8259034
 8275299
 8293620
 8307877
 8322146
 8354841
 8377344
 8391676
 8403968
 8420376
 8440912
 8467646
 8486176
 8496478
 8515040
 8525358
 8537748
 8552216
 8581200
 8595706
 8608148
 8630988
 8643456
 8653850
 8666332
 8689252
 8703848
 8724726
 8758180
 8777024
 8791696
 8808478
 8827376
 8837886
 8877856
 8890508
 8905276
 8915836
 8936960
 8949652
 8972932
 8987768
 9032296
 9053550
 9070580
 9085500
 9104688
 9115376
 9128200
 9158104
 9177368
 9194514
 9220236
 9230996
 9250336
 9273988
 9286928
 9297726
 9319288
 9334412
 9360328
 9375486
 9392816
 9405838
 9423196
 9436238
 9451456
 9468856
 9484100
 9499356
 9521152
 9536438
 9549556
 9564864
 9580184
 9597702
 9626176
 9639356
 9670080
 9683292
 9705296
 9716334
 9736176
 9751634
 9762696
 9782586
 9804704
 9815796
 9829104
 9860132
 9875688
 9917872
 9933476
 9946870
 9964720
 9984812
 10007152
 10022826
 10034048
 10074316
 10085572
 10101308
 10114816
 10126090
 10153076
 10175602
 10186912
 10202726
 10223056
 10241152
 10277312
 10299972
 10315876
 10345364
 10361304
 10374990
 10400024
 10416006
 10429728
 10452554
 10470852
 10486888
 10509776
 10523560
 10539636
 10562582
 10578688
 10601676
 10613228
 10640842
 10673080
 10686974
 10698576
 10719390
 10749440
 10767996
 10781952
 10807466
 10821448
 10833124
 10849436
 10884304
 10900656
 10926308
 10942692
 10959088
 10980152
 10996576
 11008348
 11029460
 11041248
 11055378
 11067176
 11102398
 11114224
 11128400
 11144932
 11161476
 11185088
 11201662
 11227672
 11248994
 11272696
 11289336
 11308352
 11322652
 11374848
 11401046
 11424900
 11441656
 11456048
 11472826
 11484856
 11508800
 11525616
 11549602
 11578388
 11590476
 11612136
 11631422
 11667496
 11679634
 11703776
 11720736
 11735304
 11752286
 11783728
 11795926
 11820188
 11837232
 11851872
 11876192
 11895696
 11912794
 11937176
 11951878
 11969016
 11993456
 12010624
 12022936
 12047432
 12071952
 12086736
 12113738
 12130992
 12160488
 12177776
 12190176
 12212388
 12232166
 12264240
 12281602
 12333416
 12345906
 12390432
 12402956
 12440164
 12457656
 12470216
 12492676
 12517632
 12530222
 12547776
 12562860
 12582920
 12620398
 12638016
 12650666
 12673288
 12693436
 12708608
 12726286
 12746476
 12761678
 12786904
 12819672
 12844952
 12880296
 12895584
 12913394
 12931216
 12951568
 12966896
 12979710
 13010196
 13035662
 13048512
 13071486
 13091948
 13114960
 13127848
 13143278
 13161256
 13189414
 13215056
 13253452
 13274056
 13320176
 13333176
 13348734
 13384748
 13400338
 13413376
 13428980
 13457412
 13480740
 13506656
 13519746
 13545700
 13576826
 13589952
 13636596
 13657496
 13696486
 13717432
 13733222
 13751608
 13770006
 13798784
 13814620
 13835656
 13861904
 13880376
 13898860
 13914752
 13951500
 13967424
 14001626
 14014968
 14041384
 14059976
 14075962
 14094576
 14123690
 14158080
 14182002
 14203316
 14227276
 14280208
 14298962
 14323000
 14341782
 14360576
 14374098
 14392912
 14424968
 14443816
 14457376
 14484200
 14503086
 14551200
 14564816
 14589076
 14610694
 14642984
 14661976
 14683648
 14702666
 14727040
 14770152
 14807960
 14832418
 14846176
 14870666
 14884440
 14911648
 14928128
 14947306
 14985340
 15001862
 15015696
 15043024
 15078476
 15103156
 15117040
 15141752
 15155652
 15172266
 15210584
 15243514
 15290056
 15306752
 15328896
 15348334
 15365060
 15392698
 15412176
 15434396
 15462096
 15489820
 15509360
 15526174
 15548476
 15589988
 15604104
 15637446
 15668072
 15693226
 15712896
 15740840
 15768808
 15799558
 15819296
 15836284
 15875392
 15892412
 15920512
 15940326
 15954608
 15974442
 15994288
 16028036
 16050696
 16092846
 16107200
 16157776
 16180528
 16200506
 16217704
 16257262
 16274492
 16302922
 16348176
 16387874
 16405180
 16428106
 16453856
 16468386
 16502604
 16517156
 16545792
 16574452
 16634156
 16648776
 16666224
 16686506
 16715284
 16735596
 16755920
 16779090
 16799440
 16816964
 16831656
 16852036
 16898024
 16915600
 16955968
 16982126
 17002600
 17023086
 17055008
 17072668
 17093196
 17113736
 17128560
 17157718
 17178296
 17204626
 17219488
 17245850
 17266480
 17307268
 17325056
 17374554
 17392380
 17407328
 17428056
 17471916
 17486900
 17533722
 17551632
 17572448
 17587476
 17605410
 17626256
 17673268
 17694156
 17717966
 17735968
 17751064
 17812820
 17833792
 17857696
 17893304
 17923096
 17938282
 17965184
 17980386
 18007320
 18028406
 18052440
 18070614
 18094676
 18124638
 18169344
 18190526
 18223512
 18241776
 18292520
 18310822
 18326176
 18356324
 18383536
 18407806
 18426164
 18450462
 18480712
 18499106
 18532368
 18553762
 18590048
 18609475
 18633894
 18652365
 18673828
 18695303
 18719778
 18741279
 18768776
 18799287
 18814842
 18836397
 18857964
 18894553
 18919158
 18940773
 18962400
 18993069
 19020750
 19036395
 19058076
 19097877
 19116574
 19138301
 19160040
 19181791
 19212638
 19252599
 19277436
 19299255
 19327158
 19352043
 19392144
 19410987
 19445058
 19466973
 19507188
 19535239
 19560258
 19588347
 19619512
 19635411
 19657434
 19688655
 19719900
 19787961
 19807006
 19829129
 19854336
 19873411
 19895570
 19911585
 19930684
 19971365
 20002830
 20025061
 20050392
 20072649
 20094918
 20114105
 20154972
 20171091
 20190314
 20206443
 20256720
 20275985
 20298366
 20320759
 20355612
 20415405
 20437866
 20457221
 20479704
 20511565
 20534078
 20578485
 20597908
 20623599
 20643042
 20668761
 20691360
 20713971
 20733454
 20793791
 20810172
 20839141
 20871278
 20897139
 20926168
 20952063
 21003222
 21026007
 21058284
 21077937
 21113418
 21133097
 21155952
 21172479
 21230246
 21265851
 21304660
 21321255
 21353754
 21376731
 21396536
 21441837
 21471238
 21494279
 21517332
 21540397
 21566670
 21596157
 21628864
 21664797
 21694350
 21730335
 21769556
 21805599
 21835246
 21871341
 21894600
 21933961
 21957254
 21983781
 22007100
 22046561
 22092510
 22122349
 22139280
 22162683
 22182862
 22199811
 22220004
 22253173
 22270146
 22300107
 22317096
 22340589
 22390110
 22413643
 22430676
 22450971
 22494094
 22520943
 22551072
 22577955
 22627730
 22644849
 22675060
 22718387
 22755198
 22775647
 22792824
 22813287
 22856746
 22873953
 22894452
 22918249
 22945350
 22975761
 22993008
 23056431
 23077014
 23140531
 23157852
 23188401
 23205738
 23249559
 23270232
 23314111
 23338130
 23375433
 23406124
 23423547
 23444298
 23491665
 23565696
 23589849
 23610682
 23634857
 23672388
 23693257
 23740854
 23771781
 23809416
 23860463
 23884770
 23902389
 23966940
 24001365
 24032458
 24077003
 24094704
 24115771
 24153666
 24178125
 24229540
 24274259
 24292038
 24326691
 24351240
 24372423
 24400374
 24421577
 24449556
 24474165
 24505562
 24523419
 24558240
 24603267
 24634746
 24673041
 24714764
 24753117
 24774478
 24799253
 24824040
 24842019
 24866826
 24888231
 24906228
 24968663
 24986694
 25049215
 25074128
 25092201
 25113706
 25138649
 25177332
 25198873
 25234166
 25272921
 25315144
 25353957
 25375578
 25400653
 25429188
 25454289
 25475950
 25501073
 25526208
 25551355
 25579974
 25601685
 25630332
 25652063
 25691142
 25733719
 25762440
 25787703
 25809502
 25845221
 25874004
 25916731
 25935102
 25967421
 25996272
 26016158
 26041544
 26101882
 26127312
 26159750
 26188708
 26210678
 26236160
 26272172
 26311716
 26379368
 26401424
 26441058
 26494784
 26523928
 26560128
 26582264
 26607932
 26637138
 26669888
 26695598
 26735448
 26768258
 26794016
 26812710
 26845568
 26881988
 26918432
 26958446
 26984296
 27010158
 27057344
 27090350
 27116264
 27145748
 27193048
 27215450
 27241424
 27260278
 27286272
 27319418
 27338296
 27371474
 27401096
 27427156
 27453228
 27486476
 27505408
 27553032
 27586340
 27605308
 27642240
 27664820
 27691004
 27720798
 27754208
 27791240
 27831900
 27868982
 27891656
 27921558
 27955088
 27981410
 28007744
 28059416
 28082168
 28123038
 28167560
 28208488
 28242188
 28272278
 28306016
 28343408
 28362644
 28410988
 28437528
 28475006
 28508864
 28546388
 28565696
 28588658
 28607976
 28645568
 28672216
 28695218
 28725548
 28748570
 28844880
 28867958
 28887376
 28910468
 28929896
 28964024
 29001848
 29028662
 29055488
 29097054
 29120228
 29147096
 29173976
 29200868
 29231464
 29258382
 29340752
 29389912
 29413208
 29440214
 29459824
 29497968
 29525012
 29552068
 29579136
 29602502
 29644456
 29701310
 29739608
 29759320
 29808828
 29843468
 29870672
 29935188
 29996024
 30019568
 30039384
 30062942
 30082768
 30106340
 30148640
 30170237
 30197590
 30224955
 30256084
 30302245
 30340926
 30360841
 30455960
 30479685
 30499654
 30523393
 30584820
 30612365
 30639922
 30659943
 30710176
 30733999
 30776730
 30804361
 30873628
 30924021
 30966874
 30994595
 31029912
 31069043
 31089218
 31116993
 31156180
 31229609
 31257450
 31281497
 31309360
 31337235
 31380370
 31404463
 31424748
 31487035
 31511170
 31539135
 31567112
 31633361
 31669038
 31720055
 31748116
 31780023
 31808110
 31836209
 31910400
 31934705
 31974394
 32014107
 32034604
 32082055
 32102574
 32130805
 32155192
 32195019
 32246450
 32267021
 32295324
 32319773
 32386778
 32426745
 32455120
 32493128
 32517656
 32580972
 32644336
 32684456
 32712948
 32733680
 32773856
 32845176
 32877632
 32902316
 32930904
 32971198
 32992016
 33044054
 33072704
 33097460
 33126132
 33154816
 33210896
 33259188
 33280100
 33308852
 33337616
 33389924
 33426572
 33455388
 33476360
 33501266
 33534044
 33562904
 33591776
 33654101
 33702714
 33731649
 33764540
 33801393
 33830370
 33875159
 33935784
 33968775
 34017606
 34046679
 34067844
 34108823
 34133970
 34155159
 34216032
 34247158
 34300160
 34384990
 34406272
 34435514
 34488648
 34513944
 34543232
 34570531
 34603830
 34641135
 34674468
 34725786
 34755164
 34778555
 34797953
