%%MatrixMarket matrix array real general
30 30
-1594
 109
 15
 110
 76
 11
 33
 66
 115
 116
 19
 117
 115
 58
 96
 17
 51
 110
 95
 116
 79
 4
 102
 113
 82
 91
 89
 47
 79
 20
 85
-1641
 33
 5
 11
 99
 84
 38
 114
 4
 53
 46
 92
 96
 22
 59
 53
 78
 85
 91
 33
 82
 79
 19
 14
 60
 116
 41
 70
 27
 90
 30
-1934
 84
 107
 116
 66
 16
 18
 31
 101
 30
 98
 29
 112
 42
 23
 30
 74
 57
 42
 100
 70
 66
 110
 34
 91
 91
 46
 68
 9
 6
 64
-1960
 113
 15
 68
 56
 1
 40
 19
 96
 37
 63
 20
 72
 31
 79
 83
 90
 54
 10
 27
 110
 18
 99
 65
 120
 9
 53
 12
 116
 0
 93
-1860
 105
 10
 48
 31
 96
 52
 110
 22
 31
 17
 16
 105
 70
 66
 17
 103
 75
 42
 62
 48
 9
 29
 14
 22
 29
 50
 6
 109
 114
 59
-1651
 40
 108
 44
 13
 94
 47
 29
 48
 11
 15
 113
 115
 69
 7
 28
 42
 99
 1
 5
 20
 78
 88
 78
 54
 66
 35
 90
 22
 83
 22
-1720
 75
 94
 9
 112
 93
 58
 52
 54
 37
 61
 61
 98
 96
 77
 45
 98
 64
 42
 113
 105
 66
 75
 71
 25
 36
 56
 27
 102
 23
 27
-1895
 27
 52
 37
 111
 52
 22
 109
 118
 53
 13
 31
 49
 71
 31
 72
 86
 26
 14
 35
 38
 51
 61
 10
 31
 96
 3
 112
 88
 59
 70
-1654
 55
 116
 66
 63
 28
 59
 75
 82
 47
 44
 119
 4
 107
 110
 96
 11
 31
 40
 82
 16
 87
 12
 79
 59
 94
 86
 109
 107
 40
 84
-1615
 3
 90
 60
 58
 109
 73
 74
 103
 97
 69
 22
 29
 107
 3
 59
 20
 118
 86
 60
 57
 7
 82
 5
 8
 63
 11
 98
 98
 87
 18
-1979
 62
 117
 78
 96
 54
 52
 99
 10
 16
 20
 47
 100
 97
 7
 48
 63
 50
 79
 75
 35
 52
 1
 119
 20
 12
 45
 23
 59
 41
 115
-2072
 6
 89
 32
 51
 66
 114
 50
 118
 36
 84
 80
 65
 84
 80
 21
 15
 120
 20
 3
 67
 106
 80
 23
 44
 55
 118
 18
 103
 78
 45
-1737
 51
 58
 14
 71
 27
 46
 70
 30
 35
 74
 32
 99
 118
 88
 41
 70
 13
 109
 106
 98
 31
 71
 2
 51
 37
 19
 21
 51
 11
 72
-1719
 84
 84
 77
 4
 8
 38
 64
 79
 49
 99
 86
 117
 64
 39
 12
 73
 94
 51
 10
 32
 18
 34
 53
 63
 55
 105
 62
 114
 77
 115
-1908
 81
 34
 81
 84
 8
 30
 27
 80
 102
 41
 94
 81
 0
 72
 46
 110
 0
 55
 51
 55
 93
 39
 94
 57
 4
 21
 87
 57
 18
 41
-1443
 23
 89
 29
 111
 32
 92
 22
 34
 11
 69
 82
 66
 51
 77
 78
 82
 76
 114
 25
 85
 28
 14
 73
 54
 55
 80
 93
 42
 80
 50
-1837
 100
 31
 74
 70
 65
 105
 32
 38
 14
 113
 78
 58
 77
 65
 78
 65
 87
 63
 120
 26
 12
 13
 7
 48
 54
 44
 92
 75
 93
 112
-1936
 23
 16
 84
 11
 63
 64
 104
 58
 47
 81
 89
 62
 42
 18
 70
 31
 5
 91
 29
 53
 83
 43
 89
 47
 82
 85
 53
 2
 40
 51
-1841
 23
 99
 52
 107
 47
 93
 48
 97
 91
 45
 26
 95
 114
 39
 81
 53
 100
 93
 20
 104
 119
 62
 106
 71
 18
 24
 49
 90
 99
 95
-1853
 64
 10
 13
 16
 82
 59
 22
 59
 17
 6
 102
 67
 112
 84
 70
 98
 106
 119
 0
 104
 74
 119
 63
 58
 96
 27
 60
 109
 69
 102
-1853
 70
 29
 80
 10
 75
 79
 88
 107
 118
 93
 70
 112
 70
 2
 14
 104
 58
 102
 25
 66
 76
 3
 74
 43
 5
 59
 23
 14
 24
 17
-1384
 5
 76
 34
 65
 84
 60
 64
 53
 14
 59
 103
 105
 32
 25
 68
 77
 50
 24
 114
 9
 12
 17
 20
 75
 69
 6
 112
 88
 89
 7
-2012
 113
 119
 103
 95
 62
 21
 48
 16
 3
 113
 36
 35
 40
 56
 78
 3
 101
 67
 103
 42
 53
 6
 21
 80
 40
 108
 14
 119
 65
 85
-1770
 34
 50
 56
 92
 99
 12
 21
 43
 6
 63
 40
 21
 25
 109
 81
 56
 110
 12
 90
 89
 67
 22
 72
 36
 16
 25
 108
 8
 29
 6
-1596
 1
 108
 23
 11
 37
 55
 12
 120
 40
 35
 7
 36
 5
 61
 92
 76
 10
 9
 94
 109
 64
 13
 99
 40
 35
 90
 1
 5
 80
 73
-1818
 88
 85
 94
 34
 83
 67
 47
 7
 94
 40
 73
 89
 12
 15
 66
 58
 107
 96
 88
 6
 8
 10
 96
 114
 82
 15
 87
 13
 14
 77
-2278
 79
 90
 70
 89
 28
 88
 117
 104
 10
 44
 44
 82
 72
 95
 44
 24
 10
 93
 24
 46
 66
 27
 77
 58
 18
 94
 12
 35
 28
 64
-1903
 49
 12
 13
 94
 35
 73
 116
 52
 84
 91
 52
 79
 13
 112
 22
 32
 96
 59
 93
 47
 33
 4
 81
 51
 54
 73
 7
 38
 93
 84
-1774
 15
 11
 0
 51
 79
 87
 64
 13
 76
 15
 16
 11
 17
 20
 23
 38
 38
 26
 30
 108
 85
 67
 22
 25
 9
 110
 85
 67
 37
 20
-1501
