%%MatrixMarket matrix array real general
30 30
-1754
 67
 112
 84
 70
 98
 106
 119
 0
 104
 74
 119
 63
 58
 96
 27
 60
 109
 69
 102
 89
 70
 29
 80
 10
 75
 79
 88
 107
 118
 93
-1523
 112
 70
 2
 14
 104
 58
 102
 25
 66
 76
 3
 74
 43
 5
 59
 23
 14
 24
 17
 22
 5
 76
 34
 65
 84
 60
 64
 53
 14
 59
-1973
 105
 32
 25
 68
 77
 50
 24
 114
 9
 12
 17
 20
 75
 69
 6
 112
 88
 89
 7
 104
 113
 119
 103
 95
 62
 21
 48
 16
 3
 113
-1711
 35
 40
 56
 78
 3
 101
 67
 103
 42
 53
 6
 21
 80
 40
 108
 14
 119
 65
 85
 120
 34
 50
 56
 92
 99
 12
 21
 43
 6
 63
-1782
 21
 25
 109
 81
 56
 110
 12
 90
 89
 67
 22
 72
 36
 16
 25
 108
 8
 29
 6
 53
 1
 108
 23
 11
 37
 55
 12
 120
 40
 35
-1814
 36
 5
 61
 92
 76
 10
 9
 94
 109
 64
 13
 99
 40
 35
 90
 1
 5
 80
 73
 63
 88
 85
 94
 34
 83
 67
 47
 7
 94
 40
-1801
 89
 12
 15
 66
 58
 107
 96
 88
 6
 8
 10
 96
 114
 82
 15
 87
 13
 14
 77
 39
 79
 90
 70
 89
 28
 88
 117
 104
 10
 44
-2030
 82
 72
 95
 44
 24
 10
 93
 24
 46
 66
 27
 77
 58
 18
 94
 12
 35
 28
 64
 11
 49
 12
 13
 94
 35
 73
 116
 52
 84
 91
-1568
 79
 13
 112
 22
 32
 96
 59
 93
 47
 33
 4
 81
 51
 54
 73
 7
 38
 93
 84
 15
 15
 11
 0
 51
 79
 87
 64
 13
 76
 15
-1833
 11
 17
 20
 23
 38
 38
 26
 30
 108
 85
 67
 22
 25
 9
 110
 85
 67
 37
 20
 75
 119
 20
 31
 48
 8
 82
 48
 118
 48
 75
-1638
 46
 19
 91
 105
 42
 82
 35
 64
 100
 72
 40
 36
 54
 51
 43
 67
 89
 51
 51
 15
 2
 35
 38
 79
 115
 113
 55
 29
 92
 91
-1658
 89
 12
 82
 56
 25
 11
 99
 21
 19
 80
 108
 62
 85
 18
 115
 65
 82
 4
 97
 90
 14
 63
 39
 66
 48
 50
 21
 30
 2
 111
-1569
 112
 19
 111
 96
 69
 53
 31
 90
 27
 7
 92
 81
 86
 77
 50
 47
 98
 38
 98
 95
 103
 61
 76
 115
 53
 7
 104
 76
 42
 120
-2152
 78
 73
 46
 17
 3
 50
 22
 87
 44
 101
 88
 69
 21
 115
 32
 111
 27
 45
 10
 77
 21
 5
 87
 42
 79
 46
 75
 2
 110
 96
-1947
 98
 46
 74
 69
 64
 33
 30
 54
 27
 97
 119
 3
 64
 10
 97
 119
 8
 113
 2
 82
 94
 64
 107
 108
 75
 16
 26
 22
 5
 12
-1762
 113
 42
 49
 119
 114
 81
 119
 92
 40
 80
 29
 35
 82
 63
 49
 72
 90
 70
 66
 70
 61
 9
 87
 120
 42
 117
 41
 107
 55
 50
-1530
 15
 37
 87
 94
 83
 1
 102
 111
 93
 5
 45
 85
 88
 27
 32
 81
 57
 75
 28
 21
 100
 92
 113
 13
 22
 11
 59
 23
 108
 11
-1611
 67
 93
 37
 21
 41
 25
 61
 109
 76
 12
 47
 6
 60
 52
 120
 98
 58
 108
 16
 47
 112
 111
 86
 74
 41
 113
 15
 88
 78
 100
-1852
 90
 101
 39
 66
 118
 66
 39
 74
 43
 91
 50
 59
 84
 117
 39
 101
 89
 115
 3
 43
 80
 34
 27
 86
 75
 71
 79
 5
 42
 54
-1937
 86
 103
 34
 88
 16
 101
 16
 71
 44
 97
 60
 59
 106
 42
 54
 116
 5
 117
 22
 80
 70
 81
 43
 75
 98
 2
 10
 117
 78
 27
-1966
 14
 32
 31
 40
 18
 42
 14
 106
 11
 112
 48
 5
 41
 89
 96
 65
 83
 108
 6
 36
 5
 23
 87
 87
 106
 70
 8
 111
 96
 34
-1318
 119
 86
 101
 52
 56
 67
 32
 90
 60
 78
 37
 16
 57
 43
 95
 94
 80
 16
 2
 67
 36
 113
 118
 34
 96
 108
 72
 106
 114
 66
-1447
 69
 3
 54
 78
 63
 45
 113
 100
 102
 45
 71
 105
 112
 80
 25
 79
 8
 49
 80
 112
 98
 58
 91
 50
 117
 119
 104
 47
 55
 29
-1945
 106
 110
 67
 72
 18
 108
 54
 24
 108
 92
 106
 34
 81
 80
 14
 49
 33
 86
 34
 108
 100
 47
 60
 84
 100
 73
 69
 39
 55
 86
-1615
 87
 2
 81
 53
 52
 14
 98
 39
 29
 41
 45
 66
 67
 47
 48
 62
 79
 115
 87
 48
 100
 16
 7
 10
 19
 39
 36
 1
 65
 11
-1903
 76
 103
 117
 69
 120
 66
 62
 40
 52
 59
 8
 107
 7
 52
 100
 47
 74
 99
 107
 112
 23
 31
 108
 71
 60
 74
 99
 64
 24
 54
-1897
 116
 75
 84
 87
 41
 62
 67
 18
 68
 84
 51
 101
 88
 43
 54
 46
 93
 88
 52
 83
 114
 94
 85
 13
 47
 71
 55
 6
 27
 100
-1836
 104
 9
 80
 60
 26
 69
 14
 81
 72
 6
 6
 18
 2
 52
 100
 74
 62
 104
 11
 109
 13
 62
 17
 67
 0
 92
 102
 110
 119
 61
-1739
 12
 61
 70
 92
 10
 80
 62
 20
 113
 71
 53
 113
 79
 54
 101
 64
 67
 82
 44
 28
 70
 104
 49
 13
 53
 36
 48
 100
 48
 47
-1688
