%%MatrixMarket matrix array real general
49 1
 0.01104823389714515
 0.04339554618252992
 0.1666886541225459
 0.1879015743153634
 0.1663369723480199
 0.1157942902870507
 0.1404683443333293
 0.07609326565289783
 0.1912322946148519
 0.04852242530128144
 0.1763594877779992
 0.04712447745660443
 0.09462446024412571
 0.1606547985766515
 0.2003573571922532
 0.02083257255236704
 0.2386603041185334
 0.1991979969229731
 0.1250049416074168
 0.1119256654960814
 0.1147311761151211
 0.07866856230013362
 0.1305817325967034
 0.1311628329329668
 0.209961505358785
 0.2041075652117328
 0.1654567270268006
 0.09722443982411916
 0.2084086106749201
 0.1368261637653804
 0.09006445095682172
 0.2411295256814362
 0.2249364465480967
 0.14127658928617
 0.1598475746049986
 0.1507492818818936
 0.05334687665907765
 0.07735810851992554
 0.1209300689750865
 0.05918786825937853
 0.2168130351963458
 0.05001420941511718
 0.05801525161572244
 0.04383672200832009
 0.05846271866703177
 0.1118846030609816
 0.07988905434689073
 0.2371179177274641
 0.1104744746057867
