%%MatrixMarket matrix array real general
%
2 10
4.0000000000000000e+01
1.7000000000000000e+01
-2.8600000000000000e+02
2.0000000000000000e+00
7.0000000000000000e+00
-2.3200000000000000e+02
1.4000000000000000e+01
3.0000000000000000e+01
1.2000000000000000e+01
3.0000000000000000e+00
2.2000000000000000e+01
7.0000000000000000e+00
1.2000000000000000e+01
3.8000000000000000e+01
1.9000000000000000e+01
2.4000000000000000e+01
2.0000000000000000e+01
6.0000000000000000e+00
4.0000000000000000e+01
5.0000000000000000e+00
