%%MatrixMarket matrix array real general
%
3 10
1.7000000000000000e+01
9.0000000000000000e+00
-3.2700000000000000e+02
2.0000000000000000e+00
3.2000000000000000e+01
4.0000000000000000e+00
-2.3200000000000000e+02
3.3000000000000000e+01
3.3000000000000000e+01
3.0000000000000000e+01
-2.8700000000000000e+02
3.8000000000000000e+01
3.0000000000000000e+00
3.7000000000000000e+01
2.0000000000000000e+01
7.0000000000000000e+00
1.1000000000000000e+01
3.6000000000000000e+01
3.8000000000000000e+01
1.0000000000000000e+00
2.9000000000000000e+01
2.4000000000000000e+01
2.3000000000000000e+01
2.1000000000000000e+01
6.0000000000000000e+00
3.0000000000000000e+01
2.4000000000000000e+01
5.0000000000000000e+00
1.1000000000000000e+01
2.2000000000000000e+01
