%%MatrixMarket matrix array real general
%
3 10
9.0000000000000000e+00
2.1000000000000000e+01
0.0000000000000000e+00
3.2000000000000000e+01
2.3000000000000000e+01
1.8000000000000000e+01
3.3000000000000000e+01
2.4000000000000000e+01
4.0000000000000000e+01
-2.8700000000000000e+02
1.7000000000000000e+01
3.5000000000000000e+01
3.7000000000000000e+01
-2.5500000000000000e+02
4.0000000000000000e+01
1.1000000000000000e+01
2.2000000000000000e+01
-3.3500000000000000e+02
1.0000000000000000e+00
1.8000000000000000e+01
3.5000000000000000e+01
2.3000000000000000e+01
1.5000000000000000e+01
5.0000000000000000e+00
3.0000000000000000e+01
7.0000000000000000e+00
3.6000000000000000e+01
1.1000000000000000e+01
8.0000000000000000e+00
2.6000000000000000e+01
