%%MatrixMarket matrix array real general
%
3 10
2.1000000000000000e+01
3.9000000000000000e+01
-3.2700000000000000e+02
1.6000000000000000e+01
1.6000000000000000e+01
4.0000000000000000e+00
1.5000000000000000e+01
3.3000000000000000e+01
3.3000000000000000e+01
3.0000000000000000e+01
1.7000000000000000e+01
3.8000000000000000e+01
3.3000000000000000e+01
3.6000000000000000e+01
2.0000000000000000e+01
2.6000000000000000e+01
2.2000000000000000e+01
3.6000000000000000e+01
3.3000000000000000e+01
1.2000000000000000e+01
2.9000000000000000e+01
2.4000000000000000e+01
1.0000000000000000e+01
2.1000000000000000e+01
-3.0600000000000000e+02
2.2000000000000000e+01
2.4000000000000000e+01
8.0000000000000000e+00
-3.0700000000000000e+02
2.2000000000000000e+01
