%%MatrixMarket matrix array real general
%
3 10
0.0000000000000000e+00
3.6000000000000000e+01
4.0000000000000000e+01
1.8000000000000000e+01
1.2000000000000000e+01
1.5000000000000000e+01
4.0000000000000000e+01
3.7000000000000000e+01
1.0000000000000000e+01
3.5000000000000000e+01
1.9000000000000000e+01
1.6000000000000000e+01
4.0000000000000000e+01
2.3000000000000000e+01
2.4000000000000000e+01
-3.3500000000000000e+02
4.0000000000000000e+01
1.5000000000000000e+01
3.5000000000000000e+01
-3.2100000000000000e+02
1.1000000000000000e+01
5.0000000000000000e+00
2.9000000000000000e+01
-2.6000000000000000e+02
3.6000000000000000e+01
1.5000000000000000e+01
2.0000000000000000e+00
2.6000000000000000e+01
1.0000000000000000e+01
2.7000000000000000e+01
