%%MatrixMarket matrix array real general
%
2 10
-3.2700000000000000e+02
4.0000000000000000e+01
4.0000000000000000e+00
-2.8600000000000000e+02
3.3000000000000000e+01
7.0000000000000000e+00
3.8000000000000000e+01
1.4000000000000000e+01
2.0000000000000000e+01
1.2000000000000000e+01
3.6000000000000000e+01
2.2000000000000000e+01
2.9000000000000000e+01
1.2000000000000000e+01
2.1000000000000000e+01
1.9000000000000000e+01
2.4000000000000000e+01
2.0000000000000000e+01
2.2000000000000000e+01
4.0000000000000000e+01
