%%MatrixMarket matrix array real general
200 1
 8298022
 7260985
 7751395
 6990971
 7371342
 8009485
 8122220
 7560159
 6578957
 6888361
 7013201
 6537553
 7110817
 7056351
 6720072
 6759544
 6407365
 6273741
 6270830
 6262816
 6380734
 6073122
 5792073
 6271275
 6034690
 6017639
 6121554
 5677520
 6326501
 5716364
 5546885
 4774511
 5501995
 5108531
 5293309
 5122441
 5051180
 5076160
 4729175
 5105732
 4586216
 4771342
 4896459
 3987420
 4884429
 4224266
 3925772
 4227280
 4042916
 3882719
 4037759
 3878577
 3472920
 3705132
 3237515
 3673705
 3380866
 3202704
 3094766
 2783634
 3179373
 3217166
 2655128
 3098859
 2877683
 2809652
 2622009
 2937273
 2554952
 2408186
 2103473
 2411059
 2578279
 2125669
 1846467
 1758702
 1602528
 1909300
 1928346
 1582254
 1356710
 1756780
 1323955
 1311744
 854677
 608429
 1124863
 1041304
 975188
 750159
 949711
 346054
 372885
 745638
 112936
 528384
-99697
-253158
 507458
-286400
 13936
 163318
-419761
-405636
-559858
-544167
-640728
-719294
-819768
-926628
-1050237
-1012882
-1125998
-1017574
-1251902
-1253881
-1243028
-1389794
-1543838
-1761384
-1817504
-2017564
-1591455
-1943119
-1973665
-1943918
-2308053
-1997907
-2414516
-2381514
-2748227
-2434342
-3306784
-3064121
-2932891
-2898126
-3110983
-3345463
-2958457
-2978130
-3394683
-3446077
-3668850
-3245450
-4202951
-3813854
-4172414
-3647692
-4017587
-4289791
-4041983
-3948557
-4657895
-4089667
-4791241
-4426129
-4583991
-4457447
-4644086
-4667672
-4559317
-4924393
-5154639
-4480087
-5496934
-5256681
-5566085
-5440310
-5606013
-5511156
-5863102
-5871456
-5934603
-5970301
-6324457
-5274346
-6478535
-6182543
-6378562
-6475856
-6955513
-6652619
-6826615
-6914544
-7109859
-6888000
-7367222
-7143857
-7470184
-6977734
-7456981
-7411108
-7441371
-7502853
-7364980
-8443359
-7903824
-8144521
-8041457
-7767149
