%%MatrixMarket matrix array real general
903 1
 4583.74009666543
 9167.480193330859
 13751.22028999629
 18334.96038666172
-141394.4393588918
 27456.60317902593
-8640921.146841506
 17191.98855663502
 25214.92991612893
 17203.25845271914
 17203.25711084683
 15563.16418133844
 19287.82884686332
-1114727.011815001
 16597.27542230292
 24342.68115626588
 16607.6557657621
 16607.65456292838
 15450.21994404783
 19643.22799543297
-2560078.441611853
 16023.13487830767
 23500.6070750259
 16032.67360208158
 16032.67253032328
 15326.06663852438
 19917.94520123235
-3697508.218695211
 15468.85526434648
 22687.66131341593
 15477.6193461499
 15477.61839062021
 15174.00466794764
 20121.57412885525
-4585007.656587827
 14933.74954609938
 21902.83918720879
 14941.80418738274
 14941.80333429292
 14994.60792724962
 20262.43079886202
-5268347.449003365
 14417.15444728326
 21145.16424407612
 14424.5596353494
 14424.55887225382
 14791.38911287517
 20347.79288083411
-5783695.995734496
 13918.42964508543
 20413.70139709298
 13925.24002496715
 13925.2393413785
 14567.88981469572
 20384.06381651196
-6160442.554410758
 13436.95695657693
 19707.53942672018
 13443.22223612455
 13443.22162266561
 14327.44248346773
 20376.8974027063
-6422820.582905289
 12972.13959467309
 19025.80793849772
 12977.90504014083
 12977.90448892912
 14072.8755951828
 20331.29929770463
-6590944.088511132
 12523.40140440215
 18367.65662922168
 12528.70826070772
 12528.70776462397
 13806.81802953314
 20251.71179607879
-6681565.797328561
 12090.18617431002
 17732.27526485953
 12095.07207885217
 12095.07163190929
 13531.44432508642
 20142.08587885249
-6708669.501283699
 11671.95692019808
 17118.87043892111
 11676.45623067814
 11676.45582741104
 13248.82151221541
 20005.94242972792
-6683947.336991425
 11268.19524738683
 16526.68786595864
 11272.33937452723
 11272.33901034167
 12960.61467936881
 19846.42490544952
-6617187.039463958
 10878.40067947448
 15954.98728199582
 10882.21834197879
 10882.21801263728
 12668.45308146721
 19666.34438837751
-6516589.745430749
 10502.09006729821
 15403.06643485959
 10505.60756216786
 10505.60726411261
 12373.60443291668
 19468.21870706298
-6389030.34190253
 10138.79696029866
 14870.23469477398
 10142.03836242854
 10142.03809234425
 12077.35423849635
 19254.30606191738
-6240273.145363982
 9788.071058412748
 14355.83820395664
 9791.058442609992
 9791.058197718958
 11780.65833437428
 19026.63447890331
-6075149.669841819
 9449.477623689087
 13859.23268736279
 9452.231221764561
 9452.230999452022
 11484.53025087682
 18787.02722089331
-5897707.104474381
 9122.596971697771
 13379.80930019755
 9125.135356551376
 9125.135154632779
 11189.67991200798
 18537.12523744689
-5711331.278670165
 8807.023921112734
 12916.9670560688
 8809.36413084752
 8809.363947245489
 10896.9043278434
 18278.40658579203
-5518850.156260358
 8502.367321539226
 12470.13898135668
 8504.525013352455
 8504.524846337637
 10606.71896065612
 18012.20373522575
-5322619.859978336
 8208.24953885875
 12038.76451147777
 8210.239087344118
 8210.238935255227
 10319.74759896003
 17739.71856225653
-5124597.604067934
 7924.306016652612
 11622.31562494767
 7926.140643371689
 7926.140504831661
 10036.35173307362
 17462.03582672583
-4926402.470468811
 7650.184795195132
 11220.26949835302
 7651.876646627625
 7651.876520299919
 9757.016049678266
 17180.13485790455
-4729367.298750812
 7385.546103899229
 10832.13435029706
 7387.10636122405
 7387.106246006212
 9481.980164433688
 16894.90014888208
-4534581.989174009
 7130.061911934386
 10457.42259206198
 7131.500852835443
 7131.500747646467
 9211.616758704255
 16607.1305414977
-4342930.72825797
 6883.415549344187
 10095.67616252285
 6884.742641539439
 6884.742545492376
 8946.069172262592
 16317.54762806211
-4155123.063480829
 6645.30128735924
 9746.440364176189
 6646.525237538919
 6646.525149755081
 8685.619743643427
 16026.80302675464
-3971720.797674956
 6415.423986035858
 9409.288514814354
 6416.552819935988
 6416.552739698785
 8430.336044469108
 15735.48509829601
-3793160.419626175
 6193.498702428606
 9083.796617244197
 6194.539803475585
 6194.539730067455
 8180.427487786204
 15444.12475000949
-3619772.648425431
 5979.250362780399
 8769.56719246857
 5980.210540944178
 5980.210473783874
 7935.902367177421
 15153.20084553538
-3451798.698731611
 5772.413396811829
 8466.204895570334
 5773.298918993914
 5773.298857493074
 7696.911239435982
 14863.14486552127
-3289404.549820125
 5572.731432655592
 8173.33942877242
 5573.548082124572
 5573.548025809978
 7463.416411747332
 14574.34529488734
-3132692.778447313
 5379.956955612524
 7890.602185195417
 5380.710055757356
 5380.710004144764
 7235.520994274139
 14287.15138799302
-2981713.011876678
 5193.851024169915
 7617.648168918508
 5194.545489987284
 5194.545442690181
 7013.15203681524
 14001.8767495956
-2836470.551919535
 5014.182951664756
 7354.133722178674
 5014.823308173864
 5014.823264792293
 6796.374488476455
 13718.80239348229
-2696934.048331025
 4840.730041857887
 7099.737403886932
 4841.320468844739
 4841.320429062103
 6585.088805671912
 13438.17968278537
-2563041.78578631
 4673.27729203235
 6854.138833815362
 4673.821638170853
 4673.821601655726
 6379.329350234417
 13160.23282740326
-2434707.320268376
 4511.617146716856
 6617.038501500293
 4512.118968564223
 4512.118935056494
 6178.97697934302
 12885.16131170337
-2311824.055196096
 4355.54922083198
 6388.137742543177
 4356.011793497624
 4356.011762721933
 5984.041660504929
 12613.14194334725
-2194269.377263354
 4204.880070265574
 6167.157466858731
 4205.306421487392
 4205.306393229539
 5794.390288215023
 12344.3308681084
-2081907.974918095
 4059.42293376003
 5953.819267059131
 4059.815851801351
 4059.815825831826
 5610.013503065249
 12078.86525799888
-1974594.864057812
 3918.997519144151
 5747.863068953982
 3919.359582642056
 3919.35955878412
 5430.768771263335
 11816.8649914521
-1872177.77904814
 3783.429762732354
 5549.029359653432
 3783.763346376792
 3783.763324438677
 5256.631558077772
 11558.43404982997
-1774499.374310573
 3652.551630107427
 5357.075774552212
 3652.858930843903
 3652.858910679453
 5087.453532785848
 11303.6619247908
-1681398.929892118
 3526.200891877566
 5171.760422887746
 3526.483932816509
 3526.48391426516
 4923.198386450435
 11052.62477780513
-1592713.939783759
 3404.220937988989
 4992.857434468446
 3404.481591454496
 3404.481574395156
 4763.714886171048
 10805.38662387086
-1508281.310369164
 3286.460568756882
 4820.141352635828
 3286.700558791536
 3286.700543089446
 4608.957736841246
 10562.0002974997
-1427938.491726097
 3172.773821762377
 4653.401671061891
 3172.994744439902
 3172.994729994519
 4458.775092743586
 10322.50845211425
-1351524.300964126
 3063.019777141784
 4492.428258090869
 3063.223101963051
 3063.223088661107
 4313.114954039474
 10086.9443672733
-1278879.712859797
 2957.062396192649
 4337.024919285269
 2957.249484018815
 2957.249471776772
 4171.826658509053
 9855.332795409753
-1209848.406188799
 2854.770339968645
 4186.995812712619
 2854.94244354929
 2854.942432271648
 4034.853366609579
 9627.690638255004
-1144277.300691126
 2756.016818784141
 4042.15807684278
 2756.175098615086
 2756.175088232354
 3902.046992248117
 9404.027666539099
-1082016.899539698
 2660.679423222939
 3902.329193220008
 2660.824947402174
 2660.824937833743
 3773.347374029478
 9184.347088211925
-1022921.637906159
 2568.639983789214
 3767.338722045677
 2568.773742060694
 2568.773733248659
 3648.610065716181
 8968.646161950217
-966850.0762316666
 2479.784413495403
 3637.016566640326
 2479.907316592167
 2479.907308468387
 3527.772819787757
 8756.916675524515
-913665.1094962108
 2394.00257696201
 3511.203860768996
 2394.115469060257
 2394.115461576412
 3410.695620890661
 8549.145470156691
-863234.052215038
 2311.188143803717
 3389.742088159002
 2311.291801481625
 2311.291794580063
 3297.315134478539
 8345.3148439992
-815428.7454260469
 2231.238466531095
 3272.483166530466
 2231.333609827321
 2231.333603467636
 3187.496352177925
 8145.40300134745
-770125.5640685192
 2154.054444003206
 3159.27937503483
 2154.141735095835
 2154.141729229169
 3081.175653384222
 7949.384393487237
-727205.449623569
 2079.540407531578
 3049.992680170036
 2079.620460568564
 2079.620455161191
 2978.223433269583
 7757.230104322243
-686553.8628354035
 2007.603993716435
 2944.485424217858
 2007.677373297822
 2007.677368308202
 2878.576428181541
 7568.90813866958
-648060.7630912035
 1938.156038193206
 2842.628937877992
 1938.223268120286
 1938.223263520229
 2782.110688458607
 7384.38375388661
-611620.5236564575
 1871.110457215858
 2744.294943497492
 1871.172018842527
 1871.172014596726
 2688.763815582066
 7203.61970393326
-577131.8736987282
 1806.384148526141
 2649.363498453419
 1806.44048855426
 1806.4404846391
 2598.41765089748
 7026.576524980677
-544497.7888426848
 1743.896881088356
 2557.715068067659
 1743.948409841709
 1743.948406227158
 2511.011059734569
 6853.212742133426
-513625.4078092
 1683.571202599444
 2469.23784264119
 1683.618300974897
 1683.618297641186
 2426.431719001492
 6683.485115691271
-484425.9077960314
 1625.332336817414
 2383.820436309692
 1625.375354524137
 1625.375351445685
 2344.620062124634
 6517.348816263539
-456814.4047126407
 1569.108097264118
 2301.358619255798
 1569.147359027991
 1569.147356188215
 2265.469575326991
 6354.757637286024
-430709.8203949973
 1514.828791628852
 2221.748600362395
 1514.864595427779
 1514.864592804846
 2188.922489222912
 6195.664143306334
-406034.7731361
 1462.427141244868
 2144.893214517618
 1462.459763852458
 1462.459761432514
 2114.878014193789
 6040.019853478334
-382715.4418536841
 1411.838192083985
 2070.695748716527
 1411.867887326902
 1411.867885091282
 2043.280346524019
 5887.775367020105
-360681.4518761103
 1362.999239618101
 1999.065622621496
 1363.026243331847
 1363.026241268939
 1974.034291534772
 5738.880521676289
-339865.7397497382
 1315.849745952856
 1929.912719631735
 1315.87427428095
 1315.874272374787
 1907.086127388432
 5593.284499710327
-320204.4379131332
 1270.331269712351
 1863.152597053131
 1270.35352353987
 1270.353521780737
 1842.34609372372
 5450.935964724074
-301636.7427476448
 1226.387388889566
 1798.701285588841
 1226.407552197989
 1226.407550572224
 1779.762624163526
 5311.783151012415
-284104.8007596184
 1183.963635417105
 1736.48006358008
 1183.981879253646
 1183.981877753094
 1719.251206259614
 5175.773981627473
-267553.5816612164
 1143.007423342427
 1676.410690357844
 1143.023904240127
 1143.023902853109
 1660.762470832586
 5042.85614348687
-251930.7679082263
 1103.4679877694
 1618.41977711062
 1103.482851303311
 1103.482850022975
 1604.216949392487
 4912.977189149082
-237186.6339837989
 1065.296317991999
 1562.434421505808
 1065.309697271548
 1065.309696087867
 1549.567483112985
 4786.084599700347
-223273.9405532616
 1028.445100514307
 1508.386205850108
 1028.457119371195
 1028.457118278469
 1496.739432470053
 4662.125872356673
-210147.8206635513
 992.8686568008546
 1456.207202336646
 992.8794283580694
 992.8794273476888
 1445.687839746185
 4541.048572850497
-197765.67933285
 958.5228901021028
 1405.833627297736
 958.532519633075
 958.5325187002363
 1396.34267412661
 4422.800410677927
-186087.087036748
 925.3652275036674
 1357.202188342847
 925.3738110806014
 925.3738102179232
 1348.661150532572
 4307.32928245217
-175073.6852171409
 893.3545703025113
 1310.253421681436
 893.362197361422
 893.3621965648929
 1302.577624215998
 4194.583336364487
-164689.0871748916
 862.4512400583346
 1264.928354267558
 862.457992127793
 862.4579913910827
 1258.051440836798
 4084.51100775766
-154898.7897330305
 832.6169322835892
 1221.171549405806
 832.622885287301
 832.6228846070323
 1215.021117455428
 3977.061074158171
-145670.0814743519
 803.8146662207574
 1178.928058815731
 803.8198892849921
 803.8198886557157
 1173.448080574426
 3872.182684141217
-136971.9606092709
 776.0087416249078
 1138.146200008756
 776.0132991470878
 776.0132985659836
 1133.274786047017
 3769.82540411436
-128775.0503682653
 749.164692009556
 1098.774774931651
 749.1686425431742
 749.1686420055667
 1094.464681040134
 3669.93924139418
-121051.5229908248
 723.2492443153645
 1060.765600958043
 723.2526424283287
 723.2526419318358
 1056.963944996699
 3572.474683764302
-113775.0219931951
 698.2302753849639
 1024.070974400232
 698.2331706202729
 698.2331701609014
 1020.737977607909
 3477.382717558999
-106920.5921002629
 674.0767743253093
 988.6459754214113
 674.079212871445
 674.0792124471996
 985.7364716196619
 3384.614860888269
-100464.6080503593
 650.7588019884123
 954.4461562630065
 650.7608257123604
 650.7608253197625
 951.9267097593047
 3294.123177411337
-94384.71022594388
 628.2474558475699
 921.4296388914258
 628.2491037969342
 628.2491034343514
 919.2616919564502
 3205.860304010646
-88659.73962204487
 606.5148322763526
 889.5550092811766
 606.5161397818351
 606.5161394462575
 887.7105114553083
 3119.779460847086
-83269.67888837862
 585.5339937709944
 858.7832252112457
 585.5349937974643
 585.5349934875321
 857.2292794214922
 3035.834474165674
-78195.59306948059
 565.2789338341709
 829.0756993315532
 565.2796561492867
 565.2796558624084
 827.7888234631641
 2953.979783146117
-73419.57574518023
 545.7245463873276
 800.3960332122238
 545.725018777121
 545.7250185121609
 799.3481776605452
 2874.170458440159
-68924.69514456196
 526.8465930790147
 772.7082732361423
 526.8468405791407
 526.8468403338693
 771.8798287193061
 2796.36220626262
-64694.9450588492
 508.6216747411283
 745.9784857616969
 508.6217207307966
 508.6217205042556
 745.3455533310434
 2720.511383188123
-60715.19593475583
 491.0272009541831
 720.1731711163269
 491.0270664462935
 491.0270662365638
 719.7194214480567
 2646.574997870099
-56971.15023049569
 474.0413634113306
 695.2606935749997
 474.0410680375571
 474.0410678438393
 694.9657808664895
 2574.510722562029
-53449.29810438929
 457.6431075843237
 671.2098398856373
 457.6426689404564
 457.6426687610945
 671.0602098316774
 2504.276892801643
-50136.87688815828
 441.8121078682859
 647.9911166737734
 441.8115424013311
 441.8115422356721
 647.9694647148776
 2435.83251606699
-47021.83100173314
 426.5287412030337
 625.5754410125871
 426.528063608158
 426.5280634547549
 625.6705581998108
 2369.13726972048
-44092.77522615172
 411.7740638798421
 603.9353168485516
 411.7732878998587
 411.7732877581673
 604.1325003818686
 2304.151507161979
-41338.95849509144
 397.5297869829866
 583.0436461361903
 397.5289248533932
 397.5289247221709
 583.333667107838
 2240.836254292105
-38750.23065723056
 383.7782547477813
 562.8747949387773
 383.7773179170715
 383.7773177958765
 563.2451757279164
 2179.153213477192
-36317.00982817763
 370.5024216961532
 543.4035145710363
 370.5014203160587
 370.5014202038062
 543.8466951044296
 2119.064758771833
-34030.25230939544
 357.6858324429028
 524.6059071636295
 357.6847760174002
 357.6847759137232
 525.1113127779797
 2060.533937940071
-31881.42330867553
 345.3126004079663
 506.458447123834
 345.3114973253911
 345.3114972293577
 507.0199219416908
 2003.524466747763
-29862.46941264445
 333.3673889742829
 488.9388551319718
 333.3662470924754
 333.3662470037747
 489.5474508687988
 1948.000728966942
-27965.79329531357
 321.8353916679342
 472.0252110403848
 321.8342178849161
 321.834217802751
 472.6759514746331
 1893.927770840111
-26184.22597578356
 310.7023145773429
 455.6967445174092
 310.7011153590205
 310.7011152831305
 456.3820705844856
 1841.271296635502
-24511.01218126237
 299.9543578997029
 439.9330312450982
 299.9531388863568
 299.9531388160498
 440.6489559351945
 1789.997671025034
-22939.76300242109
 289.5781995375967
 424.7147077332835
 289.5769660198962
 289.5769659549661
 425.4548579040658
 1740.073888694857
-21464.50452271196
 279.5609779171162
 410.0227433641799
 279.5597344757492
 279.5597344155846
 410.7839591410146
 1691.467646773492
-20079.46473735826
 269.8902766833511
 395.8390862558463
 269.8890276179404
 269.8890275623809
 396.6160076694773
 1644.147111475556
-18779.58794227531
 260.5541087024473
 382.1460043355506
 260.5528577031365
 260.5528576516461
 382.936157980839
 1598.081567059046
-17559.04429119448
 251.5409017823392
 368.9266685366819
 251.5396523130652
 251.5396522655208
 369.7255683213386
 1553.239532803872
-16415.27669997883
 242.8394837777557
 356.1645566900262
 242.8382387866162
 242.8382387425501
 356.970271736782
 1509.594122421499
-15337.77034712418
 234.4390692649524
 343.8439797217686
 234.4378314982796
 234.4378314575955
 344.6528490735247
 1467.107701717142
-14338.97985562902
 226.3292456817323
 331.9495428789976
 226.328017512257
 226.328017474539
 332.759858220634
 1425.775694814561
-13368.94751194504
 218.4999608698103
 320.4666195860652
 218.4987443100543
 218.4987442752481
 321.276055159985
 1385.501418083378
-12550.78781474836
 210.9415102405139
 309.3808664200578
 210.9403075641055
 210.9403075317861
 310.186125641157
 1346.453568050852
-11531.06887133942
 203.6445249669414
 298.6786448487561
 203.6433364945678
 203.6433364649056
 299.4834470042383
 1308.045154268565
-11278.45027214021
 273.5555735886632
-904.2452046564334
 200.1205111791023
 200.1205111509516
 54073.68257667369
 1275.371081084673
-9265.515040922714
