%%MatrixMarket matrix array real general
30 1
 0.3319151703974522
 0.0572598289874159
 0.08661013298602847
 0.1333121600021946
 0.02485992817514462
 0.229834881395116
 0.1351898939146172
 0.3302018866245994
 0.1351212395550262
 0.2085263609296747
 0.0518634262741435
 0.1281200610073948
 0.05413597460541823
 0.2547020647437469
 0.2926660904169598
 0.117850014713637
 0.2303185560060485
 0.09882474058767476
 0.1782748491133967
 0.2796682213172275
 0.2007380162169615
 0.112654119274974
 0.1005302487026791
 0.1520569378126194
 0.1419957200038703
 0.120816475099941
 0.1875777880911311
 0.2494720175990661
 0.1425632149875362
 0.1442501156043027
