%%MatrixMarket matrix array real general
200 1
 7746377
 8224499
 7615830
 7721472
 7229346
 7348761
 8077240
 7145758
 6997070
 7398360
 7353069
 7086658
 7418744
 6791362
 6510851
 6798844
 6504917
 7088781
 6451877
 6572278
 6519131
 6372490
 5931442
 5905081
 5975935
 6015011
 6126475
 5899785
 5400510
 6097252
 5420598
 5057963
 5312463
 5113229
 5254480
 4685112
 5014578
 5442891
 5017781
 4747695
 4679561
 5338718
 4973905
 4252950
 4496374
 4586576
 4300978
 4053950
 3821795
 3656624
 4136696
 3473156
 3792157
 3843782
 3860496
 3348848
 3721049
 3609555
 3247236
 3157638
 3420649
 3076665
 3248046
 2790251
 2379299
 2233837
 2265429
 2396923
 2528739
 2544544
 2354762
 2177140
 2005979
 2182677
 1713685
 2190799
 1840690
 1958676
 1664411
 1765580
 1553328
 1488248
 1142114
 1431081
 1221453
 1071381
 713192
 1046385
 744295
 859761
 778328
 778179
 256707
 366858
 479545
 332711
 89859
 223394
 278669
 334663
-195895
-42371
 140405
 62866
-377926
-241577
-318596
-825167
-864242
-793459
-776168
-1004259
-993502
-1302503
-1017537
-1338551
-1180133
-1292871
-1352142
-1344698
-1711959
-1739859
-2003483
-2211825
-2093102
-2446869
-1839925
-2439572
-1860665
-2230265
-2491049
-2689604
-2426485
-2546200
-2706960
-2894542
-2815524
-2890267
-3101222
-3100829
-3509880
-3030906
-3497301
-3291151
-3389148
-3310900
-3628064
-4095433
-3351581
-3761427
-4158325
-4389402
-4463040
-4543807
-4162201
-4577464
-4149726
-4670310
-4862427
-4444116
-5161217
-5023129
-5134730
-5091033
-4998504
-5442640
-5039492
-5340587
-5230315
-5467943
-5547191
-5261100
-5325929
-5903102
-6170259
-6393675
-6476216
-6447437
-6143439
-6431573
-6623489
-6849790
-6321494
-6828596
-7172677
-6748176
-7059700
-7141539
-7730735
-6781254
-7863016
-7631805
-6818503
-7796571
-7588899
-7087996
-7568779
-8071991
-7572905
-8377963
